data;
param nbStudents :=12;
param nbProjects :=5;
param maxStudentsPerProjects :=3;
param minStudentsPerProjects :=0;
param ProjectsPerStudents :=1;
param preference : 1 2 3 4 5 :=
		   1   1 5 3 2 4 
		   2   4 5 1 2 3 
		   3   5 2 3 1 4 
		   4   3 4 2 1 5 
		   5   2 3 1 4 5 
		   6   3 5 4 2 1 
		   7   4 2 3 5 1 
		   8   2 3 1 4 5 
		   9   3 4 5 1 2 
		   10   5 1 2 3 4 
		   11   2 5 4 3 1
           12   1 2 4 3 5;
end;
